30
2 0 1
4 0 3
4 1 3
4 2 1
5 1 3
5 3 3
6 0 1
6 2 3
6 3 1
6 4 1
6 5 3
7 0 2
7 1 1
7 3 3
7 4 1
7 6 2
8 1 1
8 4 1
8 5 3
8 7 2
9 1 1
9 2 2
9 5 1
10 0 2
10 3 3
10 5 3
10 8 2
10 9 2
11 0 3
11 2 1
11 4 3
11 5 3
11 6 1
11 7 1
11 8 2
12 6 1
12 7 2
12 9 3
12 11 3
13 0 2
13 3 1
13 4 2
13 9 3
13 10 2
13 11 3
14 1 3
14 2 3
14 3 3
14 4 3
14 7 1
14 8 2
14 9 3
14 11 1
14 12 3
15 0 2
15 1 1
15 2 2
15 3 1
15 7 1
15 8 3
15 10 1
15 12 3
15 13 2
15 14 2
16 2 3
16 3 1
16 5 2
16 9 2
16 11 1
16 12 2
17 0 1
17 5 1
17 6 1
17 8 1
17 11 3
17 14 2
17 16 1
18 0 2
18 8 1
18 9 3
18 10 3
18 11 2
18 13 2
19 2 3
19 4 2
19 6 1
19 10 2
19 11 2
19 16 3
19 17 3
19 18 2
20 0 2
20 3 3
20 4 3
20 5 2
20 9 2
20 10 2
20 13 1
20 14 1
20 15 2
20 16 1
20 19 3
21 0 3
21 3 2
21 4 2
21 5 2
21 7 1
21 8 2
21 10 2
21 12 3
21 13 3
21 17 1
21 20 2
22 0 1
22 2 2
22 3 2
22 6 2
22 7 3
22 10 1
22 11 3
22 13 3
22 18 3
22 19 1
22 20 1
22 21 1
23 4 2
23 5 3
23 7 2
23 9 2
23 10 2
23 12 2
23 14 1
23 17 1
23 20 1
23 22 3
24 2 2
24 4 3
24 9 1
24 10 1
24 11 2
24 12 3
24 14 2
24 19 1
24 21 3
24 22 1
25 2 1
25 4 1
25 5 1
25 7 2
25 10 2
25 11 2
25 12 3
25 13 1
25 14 1
25 16 3
25 19 2
25 21 2
25 22 1
25 23 3
25 24 2
26 3 1
26 4 2
26 7 3
26 8 1
26 9 2
26 12 3
26 14 2
26 15 2
26 16 3
26 21 2
26 22 2
26 23 1
26 25 1
27 0 1
27 4 2
27 5 3
27 6 1
27 12 2
27 13 3
27 14 2
27 16 1
27 19 2
27 20 2
27 21 2
27 22 1
27 23 2
28 0 2
28 1 3
28 3 2
28 6 3
28 8 2
28 9 3
28 10 3
28 12 1
28 14 1
28 15 3
28 21 2
28 22 2
28 24 3
29 3 3
29 4 1
29 5 3
29 7 2
29 9 3
29 10 3
29 11 2
29 13 1
29 16 1
29 17 1
29 18 3
29 20 1
29 24 3
29 25 2
29 27 2
